; benchmark generated from python API
(set-info :status unknown)
(declare-fun s () Int)
(define-funs-rec ( ( Tn_07 ((x!1 Int)) Int)
                   ( ilog2 ((x!1 Int) (x!2 Int)) Int)
                   ( xorn ((x!1 Int) (x!2 Int) (x!3 Int)) Int)
                   ( T2_05 ((x!1 Int)) Int)
                   ( t2_05 ((x!1 Int)) String)
                   ( rot2_05 ((x!1 String) (x!2 Int)) String)
                   ( ilog2_2_05 ((x!1 Int)) Int))
                 ( (let ((a!1 (+ ((_ ilog2 0) ((_ xorn 0) x!1 (- x!1 1) s) s)
                                 ((_ Tn_07 0) (- x!1 1))
                                 1)))
                     (ite (< x!1 s) x!1 (mod a!1 s)))
                   (ite (<= x!1 1) 0 (+ 1 ((_ ilog2 0) (div x!1 x!2) x!2)))
                   (let ((a!1 (+ (mod (+ (mod x!1 x!3) (mod x!2 x!3)) x!3)
                                 (* x!3
                                    ((_ xorn 0) (div x!1 x!3) (div x!2 x!3) x!3)))))
                     (ite (= x!1 0) x!2 (ite (= x!2 0) x!1 a!1)))
                   (let ((a!1 (str.substr ((_ t2_05 0)
                                            (+ ((_ ilog2_2_05 0) x!1) 1))
                                          x!1
                                          1)))
                     (ite (= a!1 "0") 0 1))
                   (let ((a!1 (div (str.len ((_ t2_05 0) (- x!1 1))) 2)))
                   (let ((a!2 (str.++ ((_ t2_05 0) (- x!1 1))
                                      ((_ rot2_05 0)
                                        ((_ t2_05 0) (- x!1 1))
                                        a!1))))
                     (ite (= x!1 0) "0" a!2)))
                   (str.++ (str.substr x!1 x!2 (- (str.len x!1) x!2))
                           (str.substr x!1 0 x!2))
                   (ite (<= x!1 1) 0 (+ 1 ((_ ilog2_2_05 0) (div x!1 2))))))
(assert
 (forall ((n Int) )(let ((?x300 ((_ Tn_07 0) n)))
(let ((?x299 ((_ T2_05 0) n)))
(let (($x323 (= ?x299 ?x300)))
(let (($x298 (>= n 0)))
(=> $x298 $x323))))))
)
(check-sat)
